rows = 5;
cols = 9;
max_steps = 12;
problem = array2d(1..rows, 1..cols, 
[
  2, 0, 0, 0, 0, 0, 0, 0, 0,
  0, 3, 0, 0, 1, 0, 0, 2, 0,
  0, 0, 0, 0, 0, 0, -1, 0, 2,
  0, 0, 2, -1, 0, 0, 0, 0, 0,
  0, 0, 0, 0, 2, 0, 0, 1, 0,%
]);
